webassembly/ejemplos_dzn/8/folder8_json_70.dzn
TERM = { '.', 's(2)', 's(4)', 'in_1', 'local_1', 'in_2', 'in_4', 'in_3', 's(1)', 's(0)', 's(3)', 'in_0'};
null = '.';
s = 8;
n = 11;
ndeps = 4;
max_registers_sz = 3;
NR = 0;
registers = [| |];
dependencies = [|'i32.load16_s_0', 'i32.store8_2', |'i32.store8_2', 'i32.store16_3', |'i32.store16_3', 'i32.load8_s_5', |'i32.store16_3', 'i32.load8_s_7'|];
GET_ENUM = { GET1, GET2, GET3};
SET_ENUM = { SET1, SET2, SET3};
TEE_ENUM = { TEE1, TEE2, TEE3};
N = 8;
OP = { 'i32.load16_s_0', 'i32.store8_2', 'i32.store16_3', 'i32.sub_0', 'i32.load8_s_5', 'i32.const_0', 'i32.load8_s_7', 'local.get_0' };
in_ops = [1, 2, 2, 2, 1, 0, 1, 0 ];
out_ops = [1, 0, 0, 1, 1, 1, 1, 1 ];
in1 = ['in_0', 'local_1', 'in_1', 'in_3', 's(1)', '.', 's(4)', '.' ];
in2 = ['.', 's(0)', 'in_2', 'in_4', '.', '.', '.', '.' ];
in3 = ['.', '.', '.', '.', '.', '.', '.', '.' ];
out1 = ['s(0)', '.', '.', 's(1)', 's(2)', 's(4)', 's(3)', 'local_1' ];
out2 = ['.', '.', '.', '.', '.', '.', '.', '.' ];
out3 = ['.', '.', '.', '.', '.', '.', '.', '.' ];
comm = [false, false, false, false, false, false, false, false ];
gas = [1, 1, 1, 1, 1, 1, 1, 1 ];
sz = [1, 1, 1, 1, 1, 1, 1, 1 ];
stor = [false, true, true, false, false, false, false, false ];
lb = [ 1, 1, 1, 1, 1, 1, 1, 1 ];
ub = [ 8, 8, 8, 8, 8, 8, 8, 8 ];
startstack = [ 'in_0', 'in_1', 'in_2', 'in_3', 'in_4', null, null, null, null, null, null ];
endstack = [ 's(3)', 's(2)', null, null, null, null, null, null, null, null, null ];
